NAME 
ROWS
 N  OBJ
 L  R0      
 L  R1      
 L  R2      
 E  R3      
 E  R4      
 E  R5      
 E  R6      
 E  R7      
 E  R8      
 E  R9      
 E  R10     
 E  R11     
 E  R12     
 E  R13     
 E  R14     
 E  R15     
 E  R16     
 E  R17     
 E  R18     
 E  R19     
 E  R20     
 E  R21     
 E  R22     
 E  R23     
 E  R24     
 E  R25     
 E  R26     
 E  R27     
COLUMNS
    MARKER    'MARKER'                 'INTORG'
    I0(9)     OBJ       -44
    I0(9)     R0        -130
    I0(9)     R1        -51
    I0(9)     R2        -178
    I0(9)     R3        15
    I0(9)     R6        12
    I0(9)     R7        5
    I0(9)     R11       1
    I0(9)     R12       14
    I0(9)     R27       1
    I1(7)     OBJ       -195
    I1(7)     R0        -14
    I1(7)     R1        -68
    I1(7)     R2        -106
    I1(7)     R3        1
    I1(7)     R9        12
    I1(7)     R11       16
    I1(7)     R27       1
    I2(8)     OBJ       98
    I2(8)     R0        60
    I2(8)     R1        132
    I2(8)     R2        -6
    I2(8)     R4        13
    I2(8)     R5        12
    I2(8)     R8        7
    I2(8)     R11       3
    I2(8)     R27       1
    I3(11)    OBJ       -92
    I3(11)    R0        1
    I3(11)    R1        106
    I3(11)    R2        106
    I3(11)    R3        16
    I3(11)    R5        18
    I3(11)    R6        6
    I3(11)    R7        16
    I3(11)    R8        14
    I3(11)    R11       13
    I3(11)    R12       14
    I3(11)    R27       1
    I4(10)    OBJ       -143
    I4(10)    R0        -39
    I4(10)    R1        -176
    I4(10)    R2        154
    I4(10)    R3        7
    I4(10)    R4        12
    I4(10)    R5        19
    I4(10)    R6        2
    I4(10)    R7        1
    I4(10)    R9        3
    I4(10)    R27       1
    I5(9)     OBJ       20
    I5(9)     R0        119
    I5(9)     R1        -103
    I5(9)     R2        -36
    I5(9)     R3        2
    I5(9)     R4        17
    I5(9)     R5        19
    I5(9)     R6        19
    I5(9)     R10       18
    I5(9)     R27       1
    I6(8)     OBJ       -65
    I6(8)     R0        132
    I6(8)     R1        116
    I6(8)     R2        189
    I6(8)     R3        -1
    I6(8)     R6        13
    I6(8)     R7        6
    I6(8)     R9        2
    I6(8)     R27       1
    I7(9)     OBJ       -117
    I7(9)     R0        161
    I7(9)     R1        -100
    I7(9)     R2        -26
    I7(9)     R3        -1
    I7(9)     R5        12
    I7(9)     R7        14
    I7(9)     R9        2
    I7(9)     R11       13
    I7(9)     R27       1
    I8(7)     OBJ       61
    I8(7)     R0        40
    I8(7)     R1        -53
    I8(7)     R2        -105
    I8(7)     R3        2
    I8(7)     R7        17
    I8(7)     R8        7
    I8(7)     R27       1
    I9(5)     OBJ       191
    I9(5)     R0        -107
    I9(5)     R1        33
    I9(5)     R2        32
    I9(5)     R4        16
    I9(5)     R27       1
    MARKER    'MARKER'                 'INTEND'
    C10(14)   OBJ       -9
    C10(14)   R0        9
    C10(14)   R1        -8
    C10(14)   R2        7
    C10(14)   R5        17
    C10(14)   R6        2
    C10(14)   R7        19
    C10(14)   R8        1
    C10(14)   R9        17
    C10(14)   R15       5
    C10(14)   R16       17
    C10(14)   R21       6
    C10(14)   R23       7
    C10(14)   R24       12
    C10(14)   R26       3
    C11(16)   OBJ       3
    C11(16)   R0        4
    C11(16)   R1        -8
    C11(16)   R2        8
    C11(16)   R3        1
    C11(16)   R4        11
    C11(16)   R7        6
    C11(16)   R8        15
    C11(16)   R9        18
    C11(16)   R11       5
    C11(16)   R14       7
    C11(16)   R17       3
    C11(16)   R20       9
    C11(16)   R23       16
    C11(16)   R24       15
    C11(16)   R25       3
    C11(16)   R26       12
    C12(16)   OBJ       -9
    C12(16)   R0        7
    C12(16)   R1        -8
    C12(16)   R2        6
    C12(16)   R4        10
    C12(16)   R7        9
    C12(16)   R8        7
    C12(16)   R9        16
    C12(16)   R11       3
    C12(16)   R12       -1
    C12(16)   R13       15
    C12(16)   R14       17
    C12(16)   R15       12
    C12(16)   R16       13
    C12(16)   R17       19
    C12(16)   R18       8
    C12(16)   R22       -1
    C13(19)   OBJ       4
    C13(19)   R0        1
    C13(19)   R2        -2
    C13(19)   R3        13
    C13(19)   R4        7
    C13(19)   R6        16
    C13(19)   R7        2
    C13(19)   R8        15
    C13(19)   R9        7
    C13(19)   R10       13
    C13(19)   R11       11
    C13(19)   R12       15
    C13(19)   R14       5
    C13(19)   R17       -1
    C13(19)   R18       1
    C13(19)   R21       15
    C13(19)   R22       3
    C13(19)   R23       19
    C13(19)   R24       3
    C13(19)   R26       16
    C14(16)   OBJ       3
    C14(16)   R0        -3
    C14(16)   R1        4
    C14(16)   R2        6
    C14(16)   R3        18
    C14(16)   R4        7
    C14(16)   R7        3
    C14(16)   R9        12
    C14(16)   R10       18
    C14(16)   R15       11
    C14(16)   R16       -1
    C14(16)   R17       3
    C14(16)   R20       10
    C14(16)   R21       14
    C14(16)   R22       16
    C14(16)   R25       5
    C14(16)   R26       -1
    C15(18)   OBJ       -6
    C15(18)   R0        9
    C15(18)   R1        7
    C15(18)   R2        -5
    C15(18)   R3        5
    C15(18)   R4        14
    C15(18)   R5        1
    C15(18)   R7        7
    C15(18)   R10       14
    C15(18)   R11       16
    C15(18)   R12       7
    C15(18)   R13       18
    C15(18)   R14       -1
    C15(18)   R15       18
    C15(18)   R17       4
    C15(18)   R19       9
    C15(18)   R20       6
    C15(18)   R21       17
    C15(18)   R26       18
    C16(16)   OBJ       -2
    C16(16)   R0        5
    C16(16)   R1        6
    C16(16)   R2        6
    C16(16)   R3        9
    C16(16)   R5        6
    C16(16)   R6        13
    C16(16)   R9        4
    C16(16)   R10       10
    C16(16)   R11       8
    C16(16)   R13       6
    C16(16)   R14       9
    C16(16)   R18       9
    C16(16)   R19       2
    C16(16)   R20       13
    C16(16)   R23       10
    C16(16)   R26       3
    C17(20)   OBJ       -2
    C17(20)   R0        -4
    C17(20)   R1        -9
    C17(20)   R2        -6
    C17(20)   R3        1
    C17(20)   R5        7
    C17(20)   R6        14
    C17(20)   R7        11
    C17(20)   R8        5
    C17(20)   R9        15
    C17(20)   R10       2
    C17(20)   R11       7
    C17(20)   R12       5
    C17(20)   R13       9
    C17(20)   R14       6
    C17(20)   R16       10
    C17(20)   R19       9
    C17(20)   R21       18
    C17(20)   R22       -1
    C17(20)   R24       3
    C17(20)   R26       6
    C18(16)   OBJ       7
    C18(16)   R0        1
    C18(16)   R1        -5
    C18(16)   R2        -1
    C18(16)   R3        13
    C18(16)   R4        8
    C18(16)   R5        19
    C18(16)   R6        12
    C18(16)   R7        13
    C18(16)   R9        9
    C18(16)   R13       10
    C18(16)   R14       18
    C18(16)   R16       7
    C18(16)   R17       6
    C18(16)   R21       -1
    C18(16)   R23       10
    C18(16)   R26       3
    C19(17)   OBJ       -1
    C19(17)   R0        6
    C19(17)   R1        -10
    C19(17)   R2        3
    C19(17)   R4        14
    C19(17)   R5        2
    C19(17)   R6        18
    C19(17)   R8        7
    C19(17)   R10       19
    C19(17)   R11       2
    C19(17)   R12       17
    C19(17)   R13       16
    C19(17)   R16       17
    C19(17)   R18       3
    C19(17)   R20       6
    C19(17)   R21       -1
    C19(17)   R25       1
    C19(17)   R26       4
    C20(18)   OBJ       -9
    C20(18)   R0        -8
    C20(18)   R1        1
    C20(18)   R2        -2
    C20(18)   R4        19
    C20(18)   R5        2
    C20(18)   R6        10
    C20(18)   R7        1
    C20(18)   R8        1
    C20(18)   R12       4
    C20(18)   R13       12
    C20(18)   R14       18
    C20(18)   R15       8
    C20(18)   R17       -1
    C20(18)   R20       5
    C20(18)   R22       1
    C20(18)   R24       1
    C20(18)   R25       8
    C20(18)   R26       16
    C21(13)   OBJ       -5
    C21(13)   R0        6
    C21(13)   R1        9
    C21(13)   R2        3
    C21(13)   R4        3
    C21(13)   R6        5
    C21(13)   R7        12
    C21(13)   R8        7
    C21(13)   R9        8
    C21(13)   R12       1
    C21(13)   R19       7
    C21(13)   R22       13
    C21(13)   R24       15
    C21(13)   R26       9
    C22(14)   OBJ       -3
    C22(14)   R0        6
    C22(14)   R1        9
    C22(14)   R2        8
    C22(14)   R3        18
    C22(14)   R8        9
    C22(14)   R9        13
    C22(14)   R11       19
    C22(14)   R14       9
    C22(14)   R20       6
    C22(14)   R21       4
    C22(14)   R23       19
    C22(14)   R24       13
    C22(14)   R25       8
    C22(14)   R26       14
    C23(13)   OBJ       -3
    C23(13)   R0        -3
    C23(13)   R1        -7
    C23(13)   R2        -9
    C23(13)   R3        11
    C23(13)   R4        12
    C23(13)   R5        6
    C23(13)   R6        15
    C23(13)   R8        9
    C23(13)   R10       19
    C23(13)   R12       18
    C23(13)   R17       13
    C23(13)   R22       18
    C23(13)   R23       6
    C24(15)   R0        -2
    C24(15)   R1        1
    C24(15)   R2        -1
    C24(15)   R4        16
    C24(15)   R5        9
    C24(15)   R6        5
    C24(15)   R10       17
    C24(15)   R12       6
    C24(15)   R13       17
    C24(15)   R14       19
    C24(15)   R18       13
    C24(15)   R19       6
    C24(15)   R20       -1
    C24(15)   R24       16
    C24(15)   R25       15
    C25(1)    R3        1
    C26(1)    R4        1
    C27(1)    R5        1
    C28(1)    R6        1
    C29(1)    R7        1
    C30(1)    R8        1
    C31(1)    R9        1
    C32(1)    R10       1
    C33(1)    R11       1
    C34(1)    R12       1
    C35(1)    R13       1
    C36(1)    R14       1
    C37(1)    R15       1
    C38(1)    R16       1
    C39(1)    R17       1
    C40(1)    R18       1
    C41(1)    R19       1
    C42(1)    R20       1
    C43(1)    R21       1
    C44(1)    R22       1
    C45(1)    R23       1
    C46(1)    R24       1
    C47(1)    R25       1
    C48(1)    R26       1
    C49(1)    R27       1
RHS
    RHS1      R0        -5.6892946081311855e+01
    RHS1      R1        -3.2162897674809039e+02
    RHS1      R2        -35.2435714485577
    RHS1      R3        93
    RHS1      R4        63
    RHS1      R5        83
    RHS1      R6        87
    RHS1      R7        56
    RHS1      R8        82
    RHS1      R9        88
    RHS1      R10       90
    RHS1      R11       51
    RHS1      R12       98
    RHS1      R13       80
    RHS1      R14       59
    RHS1      R15       50
    RHS1      R16       58
    RHS1      R17       80
    RHS1      R18       99
    RHS1      R19       63
    RHS1      R20       57
    RHS1      R21       68
    RHS1      R22       51
    RHS1      R23       63
    RHS1      R24       68
    RHS1      R25       71
    RHS1      R26       91
    RHS1      R27       3
BOUNDS
 UP BND1      I0(9)     2
 UP BND1      I1(7)     2
 UP BND1      I2(8)     2
 UP BND1      I3(11)    2
 UP BND1      I4(10)    2
 UP BND1      I5(9)     2
 UP BND1      I6(8)     2
 UP BND1      I7(9)     2
 UP BND1      I8(7)     2
 UP BND1      I9(5)     2
ENDATA
